% Auto-generated by scripts/generate_dzn.py
% problem_type   = polyominoes
% instance       = polyominoes_65
% source_json    = instances_json/0_low_blowup/polyominoes_65.json
% blowup         = 0.9117647058823529
% representation = NFA

mode = 1;

size = 4;
tiles = 10;
n_expressions = 10;
Q = 36;
S = 11;
q0 = [1, 1, 1, 1, 1, 1, 1, 1, 1, 1];
F = [{2}, {2}, {4}, {2}, {2}, {2}, {15}, {4}, {2}, {2}];
d_dfa = array3d(1..10, 1..36, 1..11, [
  % k = 1
    0, 0, 0, 0, 0, 0, 0, 0, 0, 0, 0,
    0, 0, 0, 0, 0, 0, 0, 0, 0, 0, 0,
    0, 0, 0, 0, 0, 0, 0, 0, 0, 0, 0,
    0, 0, 0, 0, 0, 0, 0, 0, 0, 0, 0,
    0, 0, 0, 0, 0, 0, 0, 0, 0, 0, 0,
    0, 0, 0, 0, 0, 0, 0, 0, 0, 0, 0,
    0, 0, 0, 0, 0, 0, 0, 0, 0, 0, 0,
    0, 0, 0, 0, 0, 0, 0, 0, 0, 0, 0,
    0, 0, 0, 0, 0, 0, 0, 0, 0, 0, 0,
    0, 0, 0, 0, 0, 0, 0, 0, 0, 0, 0,
    0, 0, 0, 0, 0, 0, 0, 0, 0, 0, 0,
    0, 0, 0, 0, 0, 0, 0, 0, 0, 0, 0,
    0, 0, 0, 0, 0, 0, 0, 0, 0, 0, 0,
    0, 0, 0, 0, 0, 0, 0, 0, 0, 0, 0,
    0, 0, 0, 0, 0, 0, 0, 0, 0, 0, 0,
    0, 0, 0, 0, 0, 0, 0, 0, 0, 0, 0,
    0, 0, 0, 0, 0, 0, 0, 0, 0, 0, 0,
    0, 0, 0, 0, 0, 0, 0, 0, 0, 0, 0,
    0, 0, 0, 0, 0, 0, 0, 0, 0, 0, 0,
    0, 0, 0, 0, 0, 0, 0, 0, 0, 0, 0,
    0, 0, 0, 0, 0, 0, 0, 0, 0, 0, 0,
    0, 0, 0, 0, 0, 0, 0, 0, 0, 0, 0,
    0, 0, 0, 0, 0, 0, 0, 0, 0, 0, 0,
    0, 0, 0, 0, 0, 0, 0, 0, 0, 0, 0,
    0, 0, 0, 0, 0, 0, 0, 0, 0, 0, 0,
    0, 0, 0, 0, 0, 0, 0, 0, 0, 0, 0,
    0, 0, 0, 0, 0, 0, 0, 0, 0, 0, 0,
    0, 0, 0, 0, 0, 0, 0, 0, 0, 0, 0,
    0, 0, 0, 0, 0, 0, 0, 0, 0, 0, 0,
    0, 0, 0, 0, 0, 0, 0, 0, 0, 0, 0,
    0, 0, 0, 0, 0, 0, 0, 0, 0, 0, 0,
    0, 0, 0, 0, 0, 0, 0, 0, 0, 0, 0,
    0, 0, 0, 0, 0, 0, 0, 0, 0, 0, 0,
    0, 0, 0, 0, 0, 0, 0, 0, 0, 0, 0,
    0, 0, 0, 0, 0, 0, 0, 0, 0, 0, 0,
    0, 0, 0, 0, 0, 0, 0, 0, 0, 0, 0,

  % k = 2
    0, 0, 0, 0, 0, 0, 0, 0, 0, 0, 0,
    0, 0, 0, 0, 0, 0, 0, 0, 0, 0, 0,
    0, 0, 0, 0, 0, 0, 0, 0, 0, 0, 0,
    0, 0, 0, 0, 0, 0, 0, 0, 0, 0, 0,
    0, 0, 0, 0, 0, 0, 0, 0, 0, 0, 0,
    0, 0, 0, 0, 0, 0, 0, 0, 0, 0, 0,
    0, 0, 0, 0, 0, 0, 0, 0, 0, 0, 0,
    0, 0, 0, 0, 0, 0, 0, 0, 0, 0, 0,
    0, 0, 0, 0, 0, 0, 0, 0, 0, 0, 0,
    0, 0, 0, 0, 0, 0, 0, 0, 0, 0, 0,
    0, 0, 0, 0, 0, 0, 0, 0, 0, 0, 0,
    0, 0, 0, 0, 0, 0, 0, 0, 0, 0, 0,
    0, 0, 0, 0, 0, 0, 0, 0, 0, 0, 0,
    0, 0, 0, 0, 0, 0, 0, 0, 0, 0, 0,
    0, 0, 0, 0, 0, 0, 0, 0, 0, 0, 0,
    0, 0, 0, 0, 0, 0, 0, 0, 0, 0, 0,
    0, 0, 0, 0, 0, 0, 0, 0, 0, 0, 0,
    0, 0, 0, 0, 0, 0, 0, 0, 0, 0, 0,
    0, 0, 0, 0, 0, 0, 0, 0, 0, 0, 0,
    0, 0, 0, 0, 0, 0, 0, 0, 0, 0, 0,
    0, 0, 0, 0, 0, 0, 0, 0, 0, 0, 0,
    0, 0, 0, 0, 0, 0, 0, 0, 0, 0, 0,
    0, 0, 0, 0, 0, 0, 0, 0, 0, 0, 0,
    0, 0, 0, 0, 0, 0, 0, 0, 0, 0, 0,
    0, 0, 0, 0, 0, 0, 0, 0, 0, 0, 0,
    0, 0, 0, 0, 0, 0, 0, 0, 0, 0, 0,
    0, 0, 0, 0, 0, 0, 0, 0, 0, 0, 0,
    0, 0, 0, 0, 0, 0, 0, 0, 0, 0, 0,
    0, 0, 0, 0, 0, 0, 0, 0, 0, 0, 0,
    0, 0, 0, 0, 0, 0, 0, 0, 0, 0, 0,
    0, 0, 0, 0, 0, 0, 0, 0, 0, 0, 0,
    0, 0, 0, 0, 0, 0, 0, 0, 0, 0, 0,
    0, 0, 0, 0, 0, 0, 0, 0, 0, 0, 0,
    0, 0, 0, 0, 0, 0, 0, 0, 0, 0, 0,
    0, 0, 0, 0, 0, 0, 0, 0, 0, 0, 0,
    0, 0, 0, 0, 0, 0, 0, 0, 0, 0, 0,

  % k = 3
    0, 0, 0, 0, 0, 0, 0, 0, 0, 0, 0,
    0, 0, 0, 0, 0, 0, 0, 0, 0, 0, 0,
    0, 0, 0, 0, 0, 0, 0, 0, 0, 0, 0,
    0, 0, 0, 0, 0, 0, 0, 0, 0, 0, 0,
    0, 0, 0, 0, 0, 0, 0, 0, 0, 0, 0,
    0, 0, 0, 0, 0, 0, 0, 0, 0, 0, 0,
    0, 0, 0, 0, 0, 0, 0, 0, 0, 0, 0,
    0, 0, 0, 0, 0, 0, 0, 0, 0, 0, 0,
    0, 0, 0, 0, 0, 0, 0, 0, 0, 0, 0,
    0, 0, 0, 0, 0, 0, 0, 0, 0, 0, 0,
    0, 0, 0, 0, 0, 0, 0, 0, 0, 0, 0,
    0, 0, 0, 0, 0, 0, 0, 0, 0, 0, 0,
    0, 0, 0, 0, 0, 0, 0, 0, 0, 0, 0,
    0, 0, 0, 0, 0, 0, 0, 0, 0, 0, 0,
    0, 0, 0, 0, 0, 0, 0, 0, 0, 0, 0,
    0, 0, 0, 0, 0, 0, 0, 0, 0, 0, 0,
    0, 0, 0, 0, 0, 0, 0, 0, 0, 0, 0,
    0, 0, 0, 0, 0, 0, 0, 0, 0, 0, 0,
    0, 0, 0, 0, 0, 0, 0, 0, 0, 0, 0,
    0, 0, 0, 0, 0, 0, 0, 0, 0, 0, 0,
    0, 0, 0, 0, 0, 0, 0, 0, 0, 0, 0,
    0, 0, 0, 0, 0, 0, 0, 0, 0, 0, 0,
    0, 0, 0, 0, 0, 0, 0, 0, 0, 0, 0,
    0, 0, 0, 0, 0, 0, 0, 0, 0, 0, 0,
    0, 0, 0, 0, 0, 0, 0, 0, 0, 0, 0,
    0, 0, 0, 0, 0, 0, 0, 0, 0, 0, 0,
    0, 0, 0, 0, 0, 0, 0, 0, 0, 0, 0,
    0, 0, 0, 0, 0, 0, 0, 0, 0, 0, 0,
    0, 0, 0, 0, 0, 0, 0, 0, 0, 0, 0,
    0, 0, 0, 0, 0, 0, 0, 0, 0, 0, 0,
    0, 0, 0, 0, 0, 0, 0, 0, 0, 0, 0,
    0, 0, 0, 0, 0, 0, 0, 0, 0, 0, 0,
    0, 0, 0, 0, 0, 0, 0, 0, 0, 0, 0,
    0, 0, 0, 0, 0, 0, 0, 0, 0, 0, 0,
    0, 0, 0, 0, 0, 0, 0, 0, 0, 0, 0,
    0, 0, 0, 0, 0, 0, 0, 0, 0, 0, 0,

  % k = 4
    0, 0, 0, 0, 0, 0, 0, 0, 0, 0, 0,
    0, 0, 0, 0, 0, 0, 0, 0, 0, 0, 0,
    0, 0, 0, 0, 0, 0, 0, 0, 0, 0, 0,
    0, 0, 0, 0, 0, 0, 0, 0, 0, 0, 0,
    0, 0, 0, 0, 0, 0, 0, 0, 0, 0, 0,
    0, 0, 0, 0, 0, 0, 0, 0, 0, 0, 0,
    0, 0, 0, 0, 0, 0, 0, 0, 0, 0, 0,
    0, 0, 0, 0, 0, 0, 0, 0, 0, 0, 0,
    0, 0, 0, 0, 0, 0, 0, 0, 0, 0, 0,
    0, 0, 0, 0, 0, 0, 0, 0, 0, 0, 0,
    0, 0, 0, 0, 0, 0, 0, 0, 0, 0, 0,
    0, 0, 0, 0, 0, 0, 0, 0, 0, 0, 0,
    0, 0, 0, 0, 0, 0, 0, 0, 0, 0, 0,
    0, 0, 0, 0, 0, 0, 0, 0, 0, 0, 0,
    0, 0, 0, 0, 0, 0, 0, 0, 0, 0, 0,
    0, 0, 0, 0, 0, 0, 0, 0, 0, 0, 0,
    0, 0, 0, 0, 0, 0, 0, 0, 0, 0, 0,
    0, 0, 0, 0, 0, 0, 0, 0, 0, 0, 0,
    0, 0, 0, 0, 0, 0, 0, 0, 0, 0, 0,
    0, 0, 0, 0, 0, 0, 0, 0, 0, 0, 0,
    0, 0, 0, 0, 0, 0, 0, 0, 0, 0, 0,
    0, 0, 0, 0, 0, 0, 0, 0, 0, 0, 0,
    0, 0, 0, 0, 0, 0, 0, 0, 0, 0, 0,
    0, 0, 0, 0, 0, 0, 0, 0, 0, 0, 0,
    0, 0, 0, 0, 0, 0, 0, 0, 0, 0, 0,
    0, 0, 0, 0, 0, 0, 0, 0, 0, 0, 0,
    0, 0, 0, 0, 0, 0, 0, 0, 0, 0, 0,
    0, 0, 0, 0, 0, 0, 0, 0, 0, 0, 0,
    0, 0, 0, 0, 0, 0, 0, 0, 0, 0, 0,
    0, 0, 0, 0, 0, 0, 0, 0, 0, 0, 0,
    0, 0, 0, 0, 0, 0, 0, 0, 0, 0, 0,
    0, 0, 0, 0, 0, 0, 0, 0, 0, 0, 0,
    0, 0, 0, 0, 0, 0, 0, 0, 0, 0, 0,
    0, 0, 0, 0, 0, 0, 0, 0, 0, 0, 0,
    0, 0, 0, 0, 0, 0, 0, 0, 0, 0, 0,
    0, 0, 0, 0, 0, 0, 0, 0, 0, 0, 0,

  % k = 5
    0, 0, 0, 0, 0, 0, 0, 0, 0, 0, 0,
    0, 0, 0, 0, 0, 0, 0, 0, 0, 0, 0,
    0, 0, 0, 0, 0, 0, 0, 0, 0, 0, 0,
    0, 0, 0, 0, 0, 0, 0, 0, 0, 0, 0,
    0, 0, 0, 0, 0, 0, 0, 0, 0, 0, 0,
    0, 0, 0, 0, 0, 0, 0, 0, 0, 0, 0,
    0, 0, 0, 0, 0, 0, 0, 0, 0, 0, 0,
    0, 0, 0, 0, 0, 0, 0, 0, 0, 0, 0,
    0, 0, 0, 0, 0, 0, 0, 0, 0, 0, 0,
    0, 0, 0, 0, 0, 0, 0, 0, 0, 0, 0,
    0, 0, 0, 0, 0, 0, 0, 0, 0, 0, 0,
    0, 0, 0, 0, 0, 0, 0, 0, 0, 0, 0,
    0, 0, 0, 0, 0, 0, 0, 0, 0, 0, 0,
    0, 0, 0, 0, 0, 0, 0, 0, 0, 0, 0,
    0, 0, 0, 0, 0, 0, 0, 0, 0, 0, 0,
    0, 0, 0, 0, 0, 0, 0, 0, 0, 0, 0,
    0, 0, 0, 0, 0, 0, 0, 0, 0, 0, 0,
    0, 0, 0, 0, 0, 0, 0, 0, 0, 0, 0,
    0, 0, 0, 0, 0, 0, 0, 0, 0, 0, 0,
    0, 0, 0, 0, 0, 0, 0, 0, 0, 0, 0,
    0, 0, 0, 0, 0, 0, 0, 0, 0, 0, 0,
    0, 0, 0, 0, 0, 0, 0, 0, 0, 0, 0,
    0, 0, 0, 0, 0, 0, 0, 0, 0, 0, 0,
    0, 0, 0, 0, 0, 0, 0, 0, 0, 0, 0,
    0, 0, 0, 0, 0, 0, 0, 0, 0, 0, 0,
    0, 0, 0, 0, 0, 0, 0, 0, 0, 0, 0,
    0, 0, 0, 0, 0, 0, 0, 0, 0, 0, 0,
    0, 0, 0, 0, 0, 0, 0, 0, 0, 0, 0,
    0, 0, 0, 0, 0, 0, 0, 0, 0, 0, 0,
    0, 0, 0, 0, 0, 0, 0, 0, 0, 0, 0,
    0, 0, 0, 0, 0, 0, 0, 0, 0, 0, 0,
    0, 0, 0, 0, 0, 0, 0, 0, 0, 0, 0,
    0, 0, 0, 0, 0, 0, 0, 0, 0, 0, 0,
    0, 0, 0, 0, 0, 0, 0, 0, 0, 0, 0,
    0, 0, 0, 0, 0, 0, 0, 0, 0, 0, 0,
    0, 0, 0, 0, 0, 0, 0, 0, 0, 0, 0,

  % k = 6
    0, 0, 0, 0, 0, 0, 0, 0, 0, 0, 0,
    0, 0, 0, 0, 0, 0, 0, 0, 0, 0, 0,
    0, 0, 0, 0, 0, 0, 0, 0, 0, 0, 0,
    0, 0, 0, 0, 0, 0, 0, 0, 0, 0, 0,
    0, 0, 0, 0, 0, 0, 0, 0, 0, 0, 0,
    0, 0, 0, 0, 0, 0, 0, 0, 0, 0, 0,
    0, 0, 0, 0, 0, 0, 0, 0, 0, 0, 0,
    0, 0, 0, 0, 0, 0, 0, 0, 0, 0, 0,
    0, 0, 0, 0, 0, 0, 0, 0, 0, 0, 0,
    0, 0, 0, 0, 0, 0, 0, 0, 0, 0, 0,
    0, 0, 0, 0, 0, 0, 0, 0, 0, 0, 0,
    0, 0, 0, 0, 0, 0, 0, 0, 0, 0, 0,
    0, 0, 0, 0, 0, 0, 0, 0, 0, 0, 0,
    0, 0, 0, 0, 0, 0, 0, 0, 0, 0, 0,
    0, 0, 0, 0, 0, 0, 0, 0, 0, 0, 0,
    0, 0, 0, 0, 0, 0, 0, 0, 0, 0, 0,
    0, 0, 0, 0, 0, 0, 0, 0, 0, 0, 0,
    0, 0, 0, 0, 0, 0, 0, 0, 0, 0, 0,
    0, 0, 0, 0, 0, 0, 0, 0, 0, 0, 0,
    0, 0, 0, 0, 0, 0, 0, 0, 0, 0, 0,
    0, 0, 0, 0, 0, 0, 0, 0, 0, 0, 0,
    0, 0, 0, 0, 0, 0, 0, 0, 0, 0, 0,
    0, 0, 0, 0, 0, 0, 0, 0, 0, 0, 0,
    0, 0, 0, 0, 0, 0, 0, 0, 0, 0, 0,
    0, 0, 0, 0, 0, 0, 0, 0, 0, 0, 0,
    0, 0, 0, 0, 0, 0, 0, 0, 0, 0, 0,
    0, 0, 0, 0, 0, 0, 0, 0, 0, 0, 0,
    0, 0, 0, 0, 0, 0, 0, 0, 0, 0, 0,
    0, 0, 0, 0, 0, 0, 0, 0, 0, 0, 0,
    0, 0, 0, 0, 0, 0, 0, 0, 0, 0, 0,
    0, 0, 0, 0, 0, 0, 0, 0, 0, 0, 0,
    0, 0, 0, 0, 0, 0, 0, 0, 0, 0, 0,
    0, 0, 0, 0, 0, 0, 0, 0, 0, 0, 0,
    0, 0, 0, 0, 0, 0, 0, 0, 0, 0, 0,
    0, 0, 0, 0, 0, 0, 0, 0, 0, 0, 0,
    0, 0, 0, 0, 0, 0, 0, 0, 0, 0, 0,

  % k = 7
    0, 0, 0, 0, 0, 0, 0, 0, 0, 0, 0,
    0, 0, 0, 0, 0, 0, 0, 0, 0, 0, 0,
    0, 0, 0, 0, 0, 0, 0, 0, 0, 0, 0,
    0, 0, 0, 0, 0, 0, 0, 0, 0, 0, 0,
    0, 0, 0, 0, 0, 0, 0, 0, 0, 0, 0,
    0, 0, 0, 0, 0, 0, 0, 0, 0, 0, 0,
    0, 0, 0, 0, 0, 0, 0, 0, 0, 0, 0,
    0, 0, 0, 0, 0, 0, 0, 0, 0, 0, 0,
    0, 0, 0, 0, 0, 0, 0, 0, 0, 0, 0,
    0, 0, 0, 0, 0, 0, 0, 0, 0, 0, 0,
    0, 0, 0, 0, 0, 0, 0, 0, 0, 0, 0,
    0, 0, 0, 0, 0, 0, 0, 0, 0, 0, 0,
    0, 0, 0, 0, 0, 0, 0, 0, 0, 0, 0,
    0, 0, 0, 0, 0, 0, 0, 0, 0, 0, 0,
    0, 0, 0, 0, 0, 0, 0, 0, 0, 0, 0,
    0, 0, 0, 0, 0, 0, 0, 0, 0, 0, 0,
    0, 0, 0, 0, 0, 0, 0, 0, 0, 0, 0,
    0, 0, 0, 0, 0, 0, 0, 0, 0, 0, 0,
    0, 0, 0, 0, 0, 0, 0, 0, 0, 0, 0,
    0, 0, 0, 0, 0, 0, 0, 0, 0, 0, 0,
    0, 0, 0, 0, 0, 0, 0, 0, 0, 0, 0,
    0, 0, 0, 0, 0, 0, 0, 0, 0, 0, 0,
    0, 0, 0, 0, 0, 0, 0, 0, 0, 0, 0,
    0, 0, 0, 0, 0, 0, 0, 0, 0, 0, 0,
    0, 0, 0, 0, 0, 0, 0, 0, 0, 0, 0,
    0, 0, 0, 0, 0, 0, 0, 0, 0, 0, 0,
    0, 0, 0, 0, 0, 0, 0, 0, 0, 0, 0,
    0, 0, 0, 0, 0, 0, 0, 0, 0, 0, 0,
    0, 0, 0, 0, 0, 0, 0, 0, 0, 0, 0,
    0, 0, 0, 0, 0, 0, 0, 0, 0, 0, 0,
    0, 0, 0, 0, 0, 0, 0, 0, 0, 0, 0,
    0, 0, 0, 0, 0, 0, 0, 0, 0, 0, 0,
    0, 0, 0, 0, 0, 0, 0, 0, 0, 0, 0,
    0, 0, 0, 0, 0, 0, 0, 0, 0, 0, 0,
    0, 0, 0, 0, 0, 0, 0, 0, 0, 0, 0,
    0, 0, 0, 0, 0, 0, 0, 0, 0, 0, 0,

  % k = 8
    0, 0, 0, 0, 0, 0, 0, 0, 0, 0, 0,
    0, 0, 0, 0, 0, 0, 0, 0, 0, 0, 0,
    0, 0, 0, 0, 0, 0, 0, 0, 0, 0, 0,
    0, 0, 0, 0, 0, 0, 0, 0, 0, 0, 0,
    0, 0, 0, 0, 0, 0, 0, 0, 0, 0, 0,
    0, 0, 0, 0, 0, 0, 0, 0, 0, 0, 0,
    0, 0, 0, 0, 0, 0, 0, 0, 0, 0, 0,
    0, 0, 0, 0, 0, 0, 0, 0, 0, 0, 0,
    0, 0, 0, 0, 0, 0, 0, 0, 0, 0, 0,
    0, 0, 0, 0, 0, 0, 0, 0, 0, 0, 0,
    0, 0, 0, 0, 0, 0, 0, 0, 0, 0, 0,
    0, 0, 0, 0, 0, 0, 0, 0, 0, 0, 0,
    0, 0, 0, 0, 0, 0, 0, 0, 0, 0, 0,
    0, 0, 0, 0, 0, 0, 0, 0, 0, 0, 0,
    0, 0, 0, 0, 0, 0, 0, 0, 0, 0, 0,
    0, 0, 0, 0, 0, 0, 0, 0, 0, 0, 0,
    0, 0, 0, 0, 0, 0, 0, 0, 0, 0, 0,
    0, 0, 0, 0, 0, 0, 0, 0, 0, 0, 0,
    0, 0, 0, 0, 0, 0, 0, 0, 0, 0, 0,
    0, 0, 0, 0, 0, 0, 0, 0, 0, 0, 0,
    0, 0, 0, 0, 0, 0, 0, 0, 0, 0, 0,
    0, 0, 0, 0, 0, 0, 0, 0, 0, 0, 0,
    0, 0, 0, 0, 0, 0, 0, 0, 0, 0, 0,
    0, 0, 0, 0, 0, 0, 0, 0, 0, 0, 0,
    0, 0, 0, 0, 0, 0, 0, 0, 0, 0, 0,
    0, 0, 0, 0, 0, 0, 0, 0, 0, 0, 0,
    0, 0, 0, 0, 0, 0, 0, 0, 0, 0, 0,
    0, 0, 0, 0, 0, 0, 0, 0, 0, 0, 0,
    0, 0, 0, 0, 0, 0, 0, 0, 0, 0, 0,
    0, 0, 0, 0, 0, 0, 0, 0, 0, 0, 0,
    0, 0, 0, 0, 0, 0, 0, 0, 0, 0, 0,
    0, 0, 0, 0, 0, 0, 0, 0, 0, 0, 0,
    0, 0, 0, 0, 0, 0, 0, 0, 0, 0, 0,
    0, 0, 0, 0, 0, 0, 0, 0, 0, 0, 0,
    0, 0, 0, 0, 0, 0, 0, 0, 0, 0, 0,
    0, 0, 0, 0, 0, 0, 0, 0, 0, 0, 0,

  % k = 9
    0, 0, 0, 0, 0, 0, 0, 0, 0, 0, 0,
    0, 0, 0, 0, 0, 0, 0, 0, 0, 0, 0,
    0, 0, 0, 0, 0, 0, 0, 0, 0, 0, 0,
    0, 0, 0, 0, 0, 0, 0, 0, 0, 0, 0,
    0, 0, 0, 0, 0, 0, 0, 0, 0, 0, 0,
    0, 0, 0, 0, 0, 0, 0, 0, 0, 0, 0,
    0, 0, 0, 0, 0, 0, 0, 0, 0, 0, 0,
    0, 0, 0, 0, 0, 0, 0, 0, 0, 0, 0,
    0, 0, 0, 0, 0, 0, 0, 0, 0, 0, 0,
    0, 0, 0, 0, 0, 0, 0, 0, 0, 0, 0,
    0, 0, 0, 0, 0, 0, 0, 0, 0, 0, 0,
    0, 0, 0, 0, 0, 0, 0, 0, 0, 0, 0,
    0, 0, 0, 0, 0, 0, 0, 0, 0, 0, 0,
    0, 0, 0, 0, 0, 0, 0, 0, 0, 0, 0,
    0, 0, 0, 0, 0, 0, 0, 0, 0, 0, 0,
    0, 0, 0, 0, 0, 0, 0, 0, 0, 0, 0,
    0, 0, 0, 0, 0, 0, 0, 0, 0, 0, 0,
    0, 0, 0, 0, 0, 0, 0, 0, 0, 0, 0,
    0, 0, 0, 0, 0, 0, 0, 0, 0, 0, 0,
    0, 0, 0, 0, 0, 0, 0, 0, 0, 0, 0,
    0, 0, 0, 0, 0, 0, 0, 0, 0, 0, 0,
    0, 0, 0, 0, 0, 0, 0, 0, 0, 0, 0,
    0, 0, 0, 0, 0, 0, 0, 0, 0, 0, 0,
    0, 0, 0, 0, 0, 0, 0, 0, 0, 0, 0,
    0, 0, 0, 0, 0, 0, 0, 0, 0, 0, 0,
    0, 0, 0, 0, 0, 0, 0, 0, 0, 0, 0,
    0, 0, 0, 0, 0, 0, 0, 0, 0, 0, 0,
    0, 0, 0, 0, 0, 0, 0, 0, 0, 0, 0,
    0, 0, 0, 0, 0, 0, 0, 0, 0, 0, 0,
    0, 0, 0, 0, 0, 0, 0, 0, 0, 0, 0,
    0, 0, 0, 0, 0, 0, 0, 0, 0, 0, 0,
    0, 0, 0, 0, 0, 0, 0, 0, 0, 0, 0,
    0, 0, 0, 0, 0, 0, 0, 0, 0, 0, 0,
    0, 0, 0, 0, 0, 0, 0, 0, 0, 0, 0,
    0, 0, 0, 0, 0, 0, 0, 0, 0, 0, 0,
    0, 0, 0, 0, 0, 0, 0, 0, 0, 0, 0,

  % k = 10
    0, 0, 0, 0, 0, 0, 0, 0, 0, 0, 0,
    0, 0, 0, 0, 0, 0, 0, 0, 0, 0, 0,
    0, 0, 0, 0, 0, 0, 0, 0, 0, 0, 0,
    0, 0, 0, 0, 0, 0, 0, 0, 0, 0, 0,
    0, 0, 0, 0, 0, 0, 0, 0, 0, 0, 0,
    0, 0, 0, 0, 0, 0, 0, 0, 0, 0, 0,
    0, 0, 0, 0, 0, 0, 0, 0, 0, 0, 0,
    0, 0, 0, 0, 0, 0, 0, 0, 0, 0, 0,
    0, 0, 0, 0, 0, 0, 0, 0, 0, 0, 0,
    0, 0, 0, 0, 0, 0, 0, 0, 0, 0, 0,
    0, 0, 0, 0, 0, 0, 0, 0, 0, 0, 0,
    0, 0, 0, 0, 0, 0, 0, 0, 0, 0, 0,
    0, 0, 0, 0, 0, 0, 0, 0, 0, 0, 0,
    0, 0, 0, 0, 0, 0, 0, 0, 0, 0, 0,
    0, 0, 0, 0, 0, 0, 0, 0, 0, 0, 0,
    0, 0, 0, 0, 0, 0, 0, 0, 0, 0, 0,
    0, 0, 0, 0, 0, 0, 0, 0, 0, 0, 0,
    0, 0, 0, 0, 0, 0, 0, 0, 0, 0, 0,
    0, 0, 0, 0, 0, 0, 0, 0, 0, 0, 0,
    0, 0, 0, 0, 0, 0, 0, 0, 0, 0, 0,
    0, 0, 0, 0, 0, 0, 0, 0, 0, 0, 0,
    0, 0, 0, 0, 0, 0, 0, 0, 0, 0, 0,
    0, 0, 0, 0, 0, 0, 0, 0, 0, 0, 0,
    0, 0, 0, 0, 0, 0, 0, 0, 0, 0, 0,
    0, 0, 0, 0, 0, 0, 0, 0, 0, 0, 0,
    0, 0, 0, 0, 0, 0, 0, 0, 0, 0, 0,
    0, 0, 0, 0, 0, 0, 0, 0, 0, 0, 0,
    0, 0, 0, 0, 0, 0, 0, 0, 0, 0, 0,
    0, 0, 0, 0, 0, 0, 0, 0, 0, 0, 0,
    0, 0, 0, 0, 0, 0, 0, 0, 0, 0, 0,
    0, 0, 0, 0, 0, 0, 0, 0, 0, 0, 0,
    0, 0, 0, 0, 0, 0, 0, 0, 0, 0, 0,
    0, 0, 0, 0, 0, 0, 0, 0, 0, 0, 0,
    0, 0, 0, 0, 0, 0, 0, 0, 0, 0, 0,
    0, 0, 0, 0, 0, 0, 0, 0, 0, 0, 0,
    0, 0, 0, 0, 0, 0, 0, 0, 0, 0, 0
]);
d_nfa = array3d(1..10, 1..36, 1..11, [
  % k = 1
    {2}, {1}, {1}, {1}, {1}, {1}, {1}, {1}, {1}, {1}, {1},
    {}, {2}, {2}, {2}, {2}, {2}, {2}, {2}, {2}, {2}, {2},
    {}, {}, {}, {}, {}, {}, {}, {}, {}, {}, {},
    {}, {}, {}, {}, {}, {}, {}, {}, {}, {}, {},
    {}, {}, {}, {}, {}, {}, {}, {}, {}, {}, {},
    {}, {}, {}, {}, {}, {}, {}, {}, {}, {}, {},
    {}, {}, {}, {}, {}, {}, {}, {}, {}, {}, {},
    {}, {}, {}, {}, {}, {}, {}, {}, {}, {}, {},
    {}, {}, {}, {}, {}, {}, {}, {}, {}, {}, {},
    {}, {}, {}, {}, {}, {}, {}, {}, {}, {}, {},
    {}, {}, {}, {}, {}, {}, {}, {}, {}, {}, {},
    {}, {}, {}, {}, {}, {}, {}, {}, {}, {}, {},
    {}, {}, {}, {}, {}, {}, {}, {}, {}, {}, {},
    {}, {}, {}, {}, {}, {}, {}, {}, {}, {}, {},
    {}, {}, {}, {}, {}, {}, {}, {}, {}, {}, {},
    {}, {}, {}, {}, {}, {}, {}, {}, {}, {}, {},
    {}, {}, {}, {}, {}, {}, {}, {}, {}, {}, {},
    {}, {}, {}, {}, {}, {}, {}, {}, {}, {}, {},
    {}, {}, {}, {}, {}, {}, {}, {}, {}, {}, {},
    {}, {}, {}, {}, {}, {}, {}, {}, {}, {}, {},
    {}, {}, {}, {}, {}, {}, {}, {}, {}, {}, {},
    {}, {}, {}, {}, {}, {}, {}, {}, {}, {}, {},
    {}, {}, {}, {}, {}, {}, {}, {}, {}, {}, {},
    {}, {}, {}, {}, {}, {}, {}, {}, {}, {}, {},
    {}, {}, {}, {}, {}, {}, {}, {}, {}, {}, {},
    {}, {}, {}, {}, {}, {}, {}, {}, {}, {}, {},
    {}, {}, {}, {}, {}, {}, {}, {}, {}, {}, {},
    {}, {}, {}, {}, {}, {}, {}, {}, {}, {}, {},
    {}, {}, {}, {}, {}, {}, {}, {}, {}, {}, {},
    {}, {}, {}, {}, {}, {}, {}, {}, {}, {}, {},
    {}, {}, {}, {}, {}, {}, {}, {}, {}, {}, {},
    {}, {}, {}, {}, {}, {}, {}, {}, {}, {}, {},
    {}, {}, {}, {}, {}, {}, {}, {}, {}, {}, {},
    {}, {}, {}, {}, {}, {}, {}, {}, {}, {}, {},
    {}, {}, {}, {}, {}, {}, {}, {}, {}, {}, {},
    {}, {}, {}, {}, {}, {}, {}, {}, {}, {}, {},

  % k = 2
    {1}, {2}, {1}, {1}, {1}, {1}, {1}, {1}, {1}, {1}, {1},
    {2}, {}, {2}, {2}, {2}, {2}, {2}, {2}, {2}, {2}, {2},
    {}, {}, {}, {}, {}, {}, {}, {}, {}, {}, {},
    {}, {}, {}, {}, {}, {}, {}, {}, {}, {}, {},
    {}, {}, {}, {}, {}, {}, {}, {}, {}, {}, {},
    {}, {}, {}, {}, {}, {}, {}, {}, {}, {}, {},
    {}, {}, {}, {}, {}, {}, {}, {}, {}, {}, {},
    {}, {}, {}, {}, {}, {}, {}, {}, {}, {}, {},
    {}, {}, {}, {}, {}, {}, {}, {}, {}, {}, {},
    {}, {}, {}, {}, {}, {}, {}, {}, {}, {}, {},
    {}, {}, {}, {}, {}, {}, {}, {}, {}, {}, {},
    {}, {}, {}, {}, {}, {}, {}, {}, {}, {}, {},
    {}, {}, {}, {}, {}, {}, {}, {}, {}, {}, {},
    {}, {}, {}, {}, {}, {}, {}, {}, {}, {}, {},
    {}, {}, {}, {}, {}, {}, {}, {}, {}, {}, {},
    {}, {}, {}, {}, {}, {}, {}, {}, {}, {}, {},
    {}, {}, {}, {}, {}, {}, {}, {}, {}, {}, {},
    {}, {}, {}, {}, {}, {}, {}, {}, {}, {}, {},
    {}, {}, {}, {}, {}, {}, {}, {}, {}, {}, {},
    {}, {}, {}, {}, {}, {}, {}, {}, {}, {}, {},
    {}, {}, {}, {}, {}, {}, {}, {}, {}, {}, {},
    {}, {}, {}, {}, {}, {}, {}, {}, {}, {}, {},
    {}, {}, {}, {}, {}, {}, {}, {}, {}, {}, {},
    {}, {}, {}, {}, {}, {}, {}, {}, {}, {}, {},
    {}, {}, {}, {}, {}, {}, {}, {}, {}, {}, {},
    {}, {}, {}, {}, {}, {}, {}, {}, {}, {}, {},
    {}, {}, {}, {}, {}, {}, {}, {}, {}, {}, {},
    {}, {}, {}, {}, {}, {}, {}, {}, {}, {}, {},
    {}, {}, {}, {}, {}, {}, {}, {}, {}, {}, {},
    {}, {}, {}, {}, {}, {}, {}, {}, {}, {}, {},
    {}, {}, {}, {}, {}, {}, {}, {}, {}, {}, {},
    {}, {}, {}, {}, {}, {}, {}, {}, {}, {}, {},
    {}, {}, {}, {}, {}, {}, {}, {}, {}, {}, {},
    {}, {}, {}, {}, {}, {}, {}, {}, {}, {}, {},
    {}, {}, {}, {}, {}, {}, {}, {}, {}, {}, {},
    {}, {}, {}, {}, {}, {}, {}, {}, {}, {}, {},

  % k = 3
    {2, 5}, {2, 5}, {3, 6}, {2, 5}, {2, 5}, {2, 5}, {2, 5}, {2, 5}, {2, 5}, {2, 5}, {2, 5},
    {2}, {2}, {3}, {2}, {2}, {2}, {2}, {2}, {2}, {2}, {2},
    {}, {}, {4}, {}, {}, {}, {}, {}, {}, {}, {},
    {4}, {4}, {}, {4}, {4}, {4}, {4}, {4}, {4}, {4}, {4},
    {5}, {5}, {6}, {5}, {5}, {5}, {5}, {5}, {5}, {5}, {5},
    {7}, {7}, {}, {7}, {7}, {7}, {7}, {7}, {7}, {7}, {7},
    {8}, {8}, {}, {8}, {8}, {8}, {8}, {8}, {8}, {8}, {8},
    {9}, {9}, {}, {9}, {9}, {9}, {9}, {9}, {9}, {9}, {9},
    {3}, {3}, {}, {3}, {3}, {3}, {3}, {3}, {3}, {3}, {3},
    {}, {}, {}, {}, {}, {}, {}, {}, {}, {}, {},
    {}, {}, {}, {}, {}, {}, {}, {}, {}, {}, {},
    {}, {}, {}, {}, {}, {}, {}, {}, {}, {}, {},
    {}, {}, {}, {}, {}, {}, {}, {}, {}, {}, {},
    {}, {}, {}, {}, {}, {}, {}, {}, {}, {}, {},
    {}, {}, {}, {}, {}, {}, {}, {}, {}, {}, {},
    {}, {}, {}, {}, {}, {}, {}, {}, {}, {}, {},
    {}, {}, {}, {}, {}, {}, {}, {}, {}, {}, {},
    {}, {}, {}, {}, {}, {}, {}, {}, {}, {}, {},
    {}, {}, {}, {}, {}, {}, {}, {}, {}, {}, {},
    {}, {}, {}, {}, {}, {}, {}, {}, {}, {}, {},
    {}, {}, {}, {}, {}, {}, {}, {}, {}, {}, {},
    {}, {}, {}, {}, {}, {}, {}, {}, {}, {}, {},
    {}, {}, {}, {}, {}, {}, {}, {}, {}, {}, {},
    {}, {}, {}, {}, {}, {}, {}, {}, {}, {}, {},
    {}, {}, {}, {}, {}, {}, {}, {}, {}, {}, {},
    {}, {}, {}, {}, {}, {}, {}, {}, {}, {}, {},
    {}, {}, {}, {}, {}, {}, {}, {}, {}, {}, {},
    {}, {}, {}, {}, {}, {}, {}, {}, {}, {}, {},
    {}, {}, {}, {}, {}, {}, {}, {}, {}, {}, {},
    {}, {}, {}, {}, {}, {}, {}, {}, {}, {}, {},
    {}, {}, {}, {}, {}, {}, {}, {}, {}, {}, {},
    {}, {}, {}, {}, {}, {}, {}, {}, {}, {}, {},
    {}, {}, {}, {}, {}, {}, {}, {}, {}, {}, {},
    {}, {}, {}, {}, {}, {}, {}, {}, {}, {}, {},
    {}, {}, {}, {}, {}, {}, {}, {}, {}, {}, {},
    {}, {}, {}, {}, {}, {}, {}, {}, {}, {}, {},

  % k = 4
    {1}, {1}, {1}, {2}, {1}, {1}, {1}, {1}, {1}, {1}, {1},
    {2}, {2}, {2}, {}, {2}, {2}, {2}, {2}, {2}, {2}, {2},
    {}, {}, {}, {}, {}, {}, {}, {}, {}, {}, {},
    {}, {}, {}, {}, {}, {}, {}, {}, {}, {}, {},
    {}, {}, {}, {}, {}, {}, {}, {}, {}, {}, {},
    {}, {}, {}, {}, {}, {}, {}, {}, {}, {}, {},
    {}, {}, {}, {}, {}, {}, {}, {}, {}, {}, {},
    {}, {}, {}, {}, {}, {}, {}, {}, {}, {}, {},
    {}, {}, {}, {}, {}, {}, {}, {}, {}, {}, {},
    {}, {}, {}, {}, {}, {}, {}, {}, {}, {}, {},
    {}, {}, {}, {}, {}, {}, {}, {}, {}, {}, {},
    {}, {}, {}, {}, {}, {}, {}, {}, {}, {}, {},
    {}, {}, {}, {}, {}, {}, {}, {}, {}, {}, {},
    {}, {}, {}, {}, {}, {}, {}, {}, {}, {}, {},
    {}, {}, {}, {}, {}, {}, {}, {}, {}, {}, {},
    {}, {}, {}, {}, {}, {}, {}, {}, {}, {}, {},
    {}, {}, {}, {}, {}, {}, {}, {}, {}, {}, {},
    {}, {}, {}, {}, {}, {}, {}, {}, {}, {}, {},
    {}, {}, {}, {}, {}, {}, {}, {}, {}, {}, {},
    {}, {}, {}, {}, {}, {}, {}, {}, {}, {}, {},
    {}, {}, {}, {}, {}, {}, {}, {}, {}, {}, {},
    {}, {}, {}, {}, {}, {}, {}, {}, {}, {}, {},
    {}, {}, {}, {}, {}, {}, {}, {}, {}, {}, {},
    {}, {}, {}, {}, {}, {}, {}, {}, {}, {}, {},
    {}, {}, {}, {}, {}, {}, {}, {}, {}, {}, {},
    {}, {}, {}, {}, {}, {}, {}, {}, {}, {}, {},
    {}, {}, {}, {}, {}, {}, {}, {}, {}, {}, {},
    {}, {}, {}, {}, {}, {}, {}, {}, {}, {}, {},
    {}, {}, {}, {}, {}, {}, {}, {}, {}, {}, {},
    {}, {}, {}, {}, {}, {}, {}, {}, {}, {}, {},
    {}, {}, {}, {}, {}, {}, {}, {}, {}, {}, {},
    {}, {}, {}, {}, {}, {}, {}, {}, {}, {}, {},
    {}, {}, {}, {}, {}, {}, {}, {}, {}, {}, {},
    {}, {}, {}, {}, {}, {}, {}, {}, {}, {}, {},
    {}, {}, {}, {}, {}, {}, {}, {}, {}, {}, {},
    {}, {}, {}, {}, {}, {}, {}, {}, {}, {}, {},

  % k = 5
    {1}, {1}, {1}, {1}, {2}, {1}, {1}, {1}, {1}, {1}, {1},
    {2}, {2}, {2}, {2}, {}, {2}, {2}, {2}, {2}, {2}, {2},
    {}, {}, {}, {}, {}, {}, {}, {}, {}, {}, {},
    {}, {}, {}, {}, {}, {}, {}, {}, {}, {}, {},
    {}, {}, {}, {}, {}, {}, {}, {}, {}, {}, {},
    {}, {}, {}, {}, {}, {}, {}, {}, {}, {}, {},
    {}, {}, {}, {}, {}, {}, {}, {}, {}, {}, {},
    {}, {}, {}, {}, {}, {}, {}, {}, {}, {}, {},
    {}, {}, {}, {}, {}, {}, {}, {}, {}, {}, {},
    {}, {}, {}, {}, {}, {}, {}, {}, {}, {}, {},
    {}, {}, {}, {}, {}, {}, {}, {}, {}, {}, {},
    {}, {}, {}, {}, {}, {}, {}, {}, {}, {}, {},
    {}, {}, {}, {}, {}, {}, {}, {}, {}, {}, {},
    {}, {}, {}, {}, {}, {}, {}, {}, {}, {}, {},
    {}, {}, {}, {}, {}, {}, {}, {}, {}, {}, {},
    {}, {}, {}, {}, {}, {}, {}, {}, {}, {}, {},
    {}, {}, {}, {}, {}, {}, {}, {}, {}, {}, {},
    {}, {}, {}, {}, {}, {}, {}, {}, {}, {}, {},
    {}, {}, {}, {}, {}, {}, {}, {}, {}, {}, {},
    {}, {}, {}, {}, {}, {}, {}, {}, {}, {}, {},
    {}, {}, {}, {}, {}, {}, {}, {}, {}, {}, {},
    {}, {}, {}, {}, {}, {}, {}, {}, {}, {}, {},
    {}, {}, {}, {}, {}, {}, {}, {}, {}, {}, {},
    {}, {}, {}, {}, {}, {}, {}, {}, {}, {}, {},
    {}, {}, {}, {}, {}, {}, {}, {}, {}, {}, {},
    {}, {}, {}, {}, {}, {}, {}, {}, {}, {}, {},
    {}, {}, {}, {}, {}, {}, {}, {}, {}, {}, {},
    {}, {}, {}, {}, {}, {}, {}, {}, {}, {}, {},
    {}, {}, {}, {}, {}, {}, {}, {}, {}, {}, {},
    {}, {}, {}, {}, {}, {}, {}, {}, {}, {}, {},
    {}, {}, {}, {}, {}, {}, {}, {}, {}, {}, {},
    {}, {}, {}, {}, {}, {}, {}, {}, {}, {}, {},
    {}, {}, {}, {}, {}, {}, {}, {}, {}, {}, {},
    {}, {}, {}, {}, {}, {}, {}, {}, {}, {}, {},
    {}, {}, {}, {}, {}, {}, {}, {}, {}, {}, {},
    {}, {}, {}, {}, {}, {}, {}, {}, {}, {}, {},

  % k = 6
    {1}, {1}, {1}, {1}, {1}, {2}, {1}, {1}, {1}, {1}, {1},
    {2}, {2}, {2}, {2}, {2}, {}, {2}, {2}, {2}, {2}, {2},
    {}, {}, {}, {}, {}, {}, {}, {}, {}, {}, {},
    {}, {}, {}, {}, {}, {}, {}, {}, {}, {}, {},
    {}, {}, {}, {}, {}, {}, {}, {}, {}, {}, {},
    {}, {}, {}, {}, {}, {}, {}, {}, {}, {}, {},
    {}, {}, {}, {}, {}, {}, {}, {}, {}, {}, {},
    {}, {}, {}, {}, {}, {}, {}, {}, {}, {}, {},
    {}, {}, {}, {}, {}, {}, {}, {}, {}, {}, {},
    {}, {}, {}, {}, {}, {}, {}, {}, {}, {}, {},
    {}, {}, {}, {}, {}, {}, {}, {}, {}, {}, {},
    {}, {}, {}, {}, {}, {}, {}, {}, {}, {}, {},
    {}, {}, {}, {}, {}, {}, {}, {}, {}, {}, {},
    {}, {}, {}, {}, {}, {}, {}, {}, {}, {}, {},
    {}, {}, {}, {}, {}, {}, {}, {}, {}, {}, {},
    {}, {}, {}, {}, {}, {}, {}, {}, {}, {}, {},
    {}, {}, {}, {}, {}, {}, {}, {}, {}, {}, {},
    {}, {}, {}, {}, {}, {}, {}, {}, {}, {}, {},
    {}, {}, {}, {}, {}, {}, {}, {}, {}, {}, {},
    {}, {}, {}, {}, {}, {}, {}, {}, {}, {}, {},
    {}, {}, {}, {}, {}, {}, {}, {}, {}, {}, {},
    {}, {}, {}, {}, {}, {}, {}, {}, {}, {}, {},
    {}, {}, {}, {}, {}, {}, {}, {}, {}, {}, {},
    {}, {}, {}, {}, {}, {}, {}, {}, {}, {}, {},
    {}, {}, {}, {}, {}, {}, {}, {}, {}, {}, {},
    {}, {}, {}, {}, {}, {}, {}, {}, {}, {}, {},
    {}, {}, {}, {}, {}, {}, {}, {}, {}, {}, {},
    {}, {}, {}, {}, {}, {}, {}, {}, {}, {}, {},
    {}, {}, {}, {}, {}, {}, {}, {}, {}, {}, {},
    {}, {}, {}, {}, {}, {}, {}, {}, {}, {}, {},
    {}, {}, {}, {}, {}, {}, {}, {}, {}, {}, {},
    {}, {}, {}, {}, {}, {}, {}, {}, {}, {}, {},
    {}, {}, {}, {}, {}, {}, {}, {}, {}, {}, {},
    {}, {}, {}, {}, {}, {}, {}, {}, {}, {}, {},
    {}, {}, {}, {}, {}, {}, {}, {}, {}, {}, {},
    {}, {}, {}, {}, {}, {}, {}, {}, {}, {}, {},

  % k = 7
    {2, 16, 26, 31}, {2, 16, 26, 31}, {2, 16, 26, 31}, {2, 16, 26, 31}, {2, 16, 26, 31}, {2, 16, 26, 31}, {3, 17, 27, 32}, {2, 16, 26, 31}, {2, 16, 26, 31}, {2, 16, 26, 31}, {2, 16, 26, 31},
    {2}, {2}, {2}, {2}, {2}, {2}, {3}, {2}, {2}, {2}, {2},
    {4}, {4}, {4}, {4}, {4}, {4}, {}, {4}, {4}, {4}, {4},
    {5}, {5}, {5}, {5}, {5}, {5}, {}, {5}, {5}, {5}, {5},
    {6}, {6}, {6}, {6}, {6}, {6}, {}, {6}, {6}, {6}, {6},
    {7}, {7}, {7}, {7}, {7}, {7}, {}, {7}, {7}, {7}, {7},
    {}, {}, {}, {}, {}, {}, {8}, {}, {}, {}, {},
    {9}, {9}, {9}, {9}, {9}, {9}, {}, {9}, {9}, {9}, {9},
    {10}, {10}, {10}, {10}, {10}, {10}, {}, {10}, {10}, {10}, {10},
    {11}, {11}, {11}, {11}, {11}, {11}, {}, {11}, {11}, {11}, {11},
    {12}, {12}, {12}, {12}, {12}, {12}, {}, {12}, {12}, {12}, {12},
    {}, {}, {}, {}, {}, {}, {13}, {}, {}, {}, {},
    {}, {}, {}, {}, {}, {}, {14}, {}, {}, {}, {},
    {}, {}, {}, {}, {}, {}, {15}, {}, {}, {}, {},
    {15}, {15}, {15}, {15}, {15}, {15}, {}, {15}, {15}, {15}, {15},
    {16}, {16}, {16}, {16}, {16}, {16}, {17}, {16}, {16}, {16}, {16},
    {}, {}, {}, {}, {}, {}, {18}, {}, {}, {}, {},
    {}, {}, {}, {}, {}, {}, {19}, {}, {}, {}, {},
    {20}, {20}, {20}, {20}, {20}, {20}, {}, {20}, {20}, {20}, {20},
    {21}, {21}, {21}, {21}, {21}, {21}, {}, {21}, {21}, {21}, {21},
    {}, {}, {}, {}, {}, {}, {22}, {}, {}, {}, {},
    {23}, {23}, {23}, {23}, {23}, {23}, {}, {23}, {23}, {23}, {23},
    {24}, {24}, {24}, {24}, {24}, {24}, {}, {24}, {24}, {24}, {24},
    {25}, {25}, {25}, {25}, {25}, {25}, {}, {25}, {25}, {25}, {25},
    {14}, {14}, {14}, {14}, {14}, {14}, {}, {14}, {14}, {14}, {14},
    {26}, {26}, {26}, {26}, {26}, {26}, {27}, {26}, {26}, {26}, {26},
    {}, {}, {}, {}, {}, {}, {28}, {}, {}, {}, {},
    {}, {}, {}, {}, {}, {}, {29}, {}, {}, {}, {},
    {30}, {30}, {30}, {30}, {30}, {30}, {}, {30}, {30}, {30}, {30},
    {19}, {19}, {19}, {19}, {19}, {19}, {}, {19}, {19}, {19}, {19},
    {31}, {31}, {31}, {31}, {31}, {31}, {32}, {31}, {31}, {31}, {31},
    {33}, {33}, {33}, {33}, {33}, {33}, {}, {33}, {33}, {33}, {33},
    {34}, {34}, {34}, {34}, {34}, {34}, {}, {34}, {34}, {34}, {34},
    {35}, {35}, {35}, {35}, {35}, {35}, {}, {35}, {35}, {35}, {35},
    {36}, {36}, {36}, {36}, {36}, {36}, {}, {36}, {36}, {36}, {36},
    {}, {}, {}, {}, {}, {}, {10}, {}, {}, {}, {},

  % k = 8
    {2, 5}, {2, 5}, {2, 5}, {2, 5}, {2, 5}, {2, 5}, {2, 5}, {3, 6}, {2, 5}, {2, 5}, {2, 5},
    {2}, {2}, {2}, {2}, {2}, {2}, {2}, {3}, {2}, {2}, {2},
    {}, {}, {}, {}, {}, {}, {}, {4}, {}, {}, {},
    {4}, {4}, {4}, {4}, {4}, {4}, {4}, {}, {4}, {4}, {4},
    {5}, {5}, {5}, {5}, {5}, {5}, {5}, {6}, {5}, {5}, {5},
    {7}, {7}, {7}, {7}, {7}, {7}, {7}, {}, {7}, {7}, {7},
    {8}, {8}, {8}, {8}, {8}, {8}, {8}, {}, {8}, {8}, {8},
    {9}, {9}, {9}, {9}, {9}, {9}, {9}, {}, {9}, {9}, {9},
    {3}, {3}, {3}, {3}, {3}, {3}, {3}, {}, {3}, {3}, {3},
    {}, {}, {}, {}, {}, {}, {}, {}, {}, {}, {},
    {}, {}, {}, {}, {}, {}, {}, {}, {}, {}, {},
    {}, {}, {}, {}, {}, {}, {}, {}, {}, {}, {},
    {}, {}, {}, {}, {}, {}, {}, {}, {}, {}, {},
    {}, {}, {}, {}, {}, {}, {}, {}, {}, {}, {},
    {}, {}, {}, {}, {}, {}, {}, {}, {}, {}, {},
    {}, {}, {}, {}, {}, {}, {}, {}, {}, {}, {},
    {}, {}, {}, {}, {}, {}, {}, {}, {}, {}, {},
    {}, {}, {}, {}, {}, {}, {}, {}, {}, {}, {},
    {}, {}, {}, {}, {}, {}, {}, {}, {}, {}, {},
    {}, {}, {}, {}, {}, {}, {}, {}, {}, {}, {},
    {}, {}, {}, {}, {}, {}, {}, {}, {}, {}, {},
    {}, {}, {}, {}, {}, {}, {}, {}, {}, {}, {},
    {}, {}, {}, {}, {}, {}, {}, {}, {}, {}, {},
    {}, {}, {}, {}, {}, {}, {}, {}, {}, {}, {},
    {}, {}, {}, {}, {}, {}, {}, {}, {}, {}, {},
    {}, {}, {}, {}, {}, {}, {}, {}, {}, {}, {},
    {}, {}, {}, {}, {}, {}, {}, {}, {}, {}, {},
    {}, {}, {}, {}, {}, {}, {}, {}, {}, {}, {},
    {}, {}, {}, {}, {}, {}, {}, {}, {}, {}, {},
    {}, {}, {}, {}, {}, {}, {}, {}, {}, {}, {},
    {}, {}, {}, {}, {}, {}, {}, {}, {}, {}, {},
    {}, {}, {}, {}, {}, {}, {}, {}, {}, {}, {},
    {}, {}, {}, {}, {}, {}, {}, {}, {}, {}, {},
    {}, {}, {}, {}, {}, {}, {}, {}, {}, {}, {},
    {}, {}, {}, {}, {}, {}, {}, {}, {}, {}, {},
    {}, {}, {}, {}, {}, {}, {}, {}, {}, {}, {},

  % k = 9
    {1}, {1}, {1}, {1}, {1}, {1}, {1}, {1}, {2}, {1}, {1},
    {2}, {2}, {2}, {2}, {2}, {2}, {2}, {2}, {}, {2}, {2},
    {}, {}, {}, {}, {}, {}, {}, {}, {}, {}, {},
    {}, {}, {}, {}, {}, {}, {}, {}, {}, {}, {},
    {}, {}, {}, {}, {}, {}, {}, {}, {}, {}, {},
    {}, {}, {}, {}, {}, {}, {}, {}, {}, {}, {},
    {}, {}, {}, {}, {}, {}, {}, {}, {}, {}, {},
    {}, {}, {}, {}, {}, {}, {}, {}, {}, {}, {},
    {}, {}, {}, {}, {}, {}, {}, {}, {}, {}, {},
    {}, {}, {}, {}, {}, {}, {}, {}, {}, {}, {},
    {}, {}, {}, {}, {}, {}, {}, {}, {}, {}, {},
    {}, {}, {}, {}, {}, {}, {}, {}, {}, {}, {},
    {}, {}, {}, {}, {}, {}, {}, {}, {}, {}, {},
    {}, {}, {}, {}, {}, {}, {}, {}, {}, {}, {},
    {}, {}, {}, {}, {}, {}, {}, {}, {}, {}, {},
    {}, {}, {}, {}, {}, {}, {}, {}, {}, {}, {},
    {}, {}, {}, {}, {}, {}, {}, {}, {}, {}, {},
    {}, {}, {}, {}, {}, {}, {}, {}, {}, {}, {},
    {}, {}, {}, {}, {}, {}, {}, {}, {}, {}, {},
    {}, {}, {}, {}, {}, {}, {}, {}, {}, {}, {},
    {}, {}, {}, {}, {}, {}, {}, {}, {}, {}, {},
    {}, {}, {}, {}, {}, {}, {}, {}, {}, {}, {},
    {}, {}, {}, {}, {}, {}, {}, {}, {}, {}, {},
    {}, {}, {}, {}, {}, {}, {}, {}, {}, {}, {},
    {}, {}, {}, {}, {}, {}, {}, {}, {}, {}, {},
    {}, {}, {}, {}, {}, {}, {}, {}, {}, {}, {},
    {}, {}, {}, {}, {}, {}, {}, {}, {}, {}, {},
    {}, {}, {}, {}, {}, {}, {}, {}, {}, {}, {},
    {}, {}, {}, {}, {}, {}, {}, {}, {}, {}, {},
    {}, {}, {}, {}, {}, {}, {}, {}, {}, {}, {},
    {}, {}, {}, {}, {}, {}, {}, {}, {}, {}, {},
    {}, {}, {}, {}, {}, {}, {}, {}, {}, {}, {},
    {}, {}, {}, {}, {}, {}, {}, {}, {}, {}, {},
    {}, {}, {}, {}, {}, {}, {}, {}, {}, {}, {},
    {}, {}, {}, {}, {}, {}, {}, {}, {}, {}, {},
    {}, {}, {}, {}, {}, {}, {}, {}, {}, {}, {},

  % k = 10
    {1}, {1}, {1}, {1}, {1}, {1}, {1}, {1}, {1}, {2}, {1},
    {2}, {2}, {2}, {2}, {2}, {2}, {2}, {2}, {2}, {}, {2},
    {}, {}, {}, {}, {}, {}, {}, {}, {}, {}, {},
    {}, {}, {}, {}, {}, {}, {}, {}, {}, {}, {},
    {}, {}, {}, {}, {}, {}, {}, {}, {}, {}, {},
    {}, {}, {}, {}, {}, {}, {}, {}, {}, {}, {},
    {}, {}, {}, {}, {}, {}, {}, {}, {}, {}, {},
    {}, {}, {}, {}, {}, {}, {}, {}, {}, {}, {},
    {}, {}, {}, {}, {}, {}, {}, {}, {}, {}, {},
    {}, {}, {}, {}, {}, {}, {}, {}, {}, {}, {},
    {}, {}, {}, {}, {}, {}, {}, {}, {}, {}, {},
    {}, {}, {}, {}, {}, {}, {}, {}, {}, {}, {},
    {}, {}, {}, {}, {}, {}, {}, {}, {}, {}, {},
    {}, {}, {}, {}, {}, {}, {}, {}, {}, {}, {},
    {}, {}, {}, {}, {}, {}, {}, {}, {}, {}, {},
    {}, {}, {}, {}, {}, {}, {}, {}, {}, {}, {},
    {}, {}, {}, {}, {}, {}, {}, {}, {}, {}, {},
    {}, {}, {}, {}, {}, {}, {}, {}, {}, {}, {},
    {}, {}, {}, {}, {}, {}, {}, {}, {}, {}, {},
    {}, {}, {}, {}, {}, {}, {}, {}, {}, {}, {},
    {}, {}, {}, {}, {}, {}, {}, {}, {}, {}, {},
    {}, {}, {}, {}, {}, {}, {}, {}, {}, {}, {},
    {}, {}, {}, {}, {}, {}, {}, {}, {}, {}, {},
    {}, {}, {}, {}, {}, {}, {}, {}, {}, {}, {},
    {}, {}, {}, {}, {}, {}, {}, {}, {}, {}, {},
    {}, {}, {}, {}, {}, {}, {}, {}, {}, {}, {},
    {}, {}, {}, {}, {}, {}, {}, {}, {}, {}, {},
    {}, {}, {}, {}, {}, {}, {}, {}, {}, {}, {},
    {}, {}, {}, {}, {}, {}, {}, {}, {}, {}, {},
    {}, {}, {}, {}, {}, {}, {}, {}, {}, {}, {},
    {}, {}, {}, {}, {}, {}, {}, {}, {}, {}, {},
    {}, {}, {}, {}, {}, {}, {}, {}, {}, {}, {},
    {}, {}, {}, {}, {}, {}, {}, {}, {}, {}, {},
    {}, {}, {}, {}, {}, {}, {}, {}, {}, {}, {},
    {}, {}, {}, {}, {}, {}, {}, {}, {}, {}, {},
    {}, {}, {}, {}, {}, {}, {}, {}, {}, {}, {}
]);
